3
40
9969
[[973,802, 11,572,933, 33,685,391,952, 43,368,261,517,887,225,964,839,995,246, 61,772, 87,441,625,548,904,511,457,787,570,791,523,525,315,909,440,988, 42,512,693],
 [312,891,438,325,958,909,677,879,180, 38,803,163,721,211,632,277,376,154,573,193,760,496,769,703,889,780,971,475,465,852,692, 89,924,225,199,457,665,523,623,684],
 [850,376, 58,173,436,783,885,883,938, 16,815,935,456,281,944,642,764,535,511,754,171,162,584,265,407,435, 12,894,423,623, 88, 81,180,819,959,211,283,195,897,636]]
[ 27,510,597,741,516,394,178,604,388,589,837,469,268,714,819,507,237,310,422,566,594,727,891,547,623,626,826,491,311,509,491,694,260, 27,459,346,491,384,343,605]